c ---- [ banner ] ------------------------------------------------------------
c
c Kissat SAT Solver
c 
c Copyright (c) 2021-2023 Armin Biere University of Freiburg
c Copyright (c) 2019-2021 Armin Biere Johannes Kepler University Linz
c 
c Version 3.1.1 unknown
c gcc (Ubuntu 9.4.0-1ubuntu1~20.04.2) 9.4.0 -W -Wall -O3 -DNDEBUG
c Mon Feb 26 18:18:52 CET 2024 Linux OptiPlex-7080 5.15.0-88-generic x86_64
c
c ---- [ parsing ] -----------------------------------------------------------
c
c opened and reading DIMACS file:
c
c   /home/oliveras/SAT-comp-2023//6e31e88a5dadaa3876eb5ff4293134c2-hash_table_find_safety_size_21.cnf
c
c parsed 'p cnf 12381374 56719873' header
c closing input after reading 1405544812 bytes (1 GB)
c finished parsing after 15.58 seconds
c
c ---- [ options ] -----------------------------------------------------------
c
c --seed=1                         (different from default '0')
c
c ---- [ solving ] -----------------------------------------------------------
c
c  seconds   switched conflicts       irredundant    variables
c           MB reductions redundant            trail        remaining
c            level restarts      binary           glue
c
c * 15.58 3431 0 0 0  0   0   0 7559504 42159149 0% 0 11219792 91%
c { 15.58 3431 0 0 0  0   0   0 7559504 42159149 0% 0 11219792 91%
c i 15.76 3431 1168 0 0  0 465  23 7559507 42159149 1% 566 11219791 91%
c - 16.67 3432 1133 0 1  0 1006  36 7137955 42159149 1% 693 11219791 91%
c } 16.67 3432 1133 1 1  0 1006  36 7137955 42159149 1% 693 11219791 91%
c [ 16.67 3432 0 1 1  0 1006  36 7137955 42159149 0% 0 11219791 91%
c B 17.17 3474 0 1 1  0 1006  36 7137955 42159149 0% 0 11219791 91%
c ] 17.90 3479 14 2 1  0 1007  37 7137955 42159149 1% 2 11219791 91%
c { 17.90 3479 1133 2 1  0 1007  37 7137955 42159149 1% 693 11219791 91%
c i 18.89 3479 1122 2 1  0 1036  54 7137962 42159149 1% 509 11219790 91%
c i 22.72 3497 1053 2 1  0 2146 1163 7137962 42159149 2% 44 11219789 91%
c - 23.47 3497 1053 2 2  0 2146 1120 7137959 42159149 2% 44 11219789 91%
c } 23.47 3497 1053 3 2  0 2146 1120 7137959 42159149 2% 44 11219789 91%
c [ 23.47 3497 14 3 2  0 2146 1120 7137959 42159149 1% 2 11219789 91%
c W 34.23 3719 14 3 2  0 2146 1120 7137959 42057617 1% 2 11219789 91%
c i 34.71 3720 986 3 2  0 3311 1333 7137959 42057617 2% 31 11219788 91%
c - 37.47 3728 901 3 3  0 3561 1327 7137958 42057615 2% 30 11219788 91%
c ] 41.23 3744 924 4 3  0 3587 1347 7137958 42057615 3% 39 11219788 91%
c { 41.23 3744 1053 4 3  0 3587 1347 7137958 42057615 2% 44 11219788 91%
c i 61.27 3764 1122 4 3  9 3787 1489 7137975 42057615 4% 50 11219764 91%
c
c  seconds       switched conflicts         irredundant      variables
c            MB   reductions  redundant               trail         remaining
c              level  restarts         binary             glue
c
c i 115.33 3807 1036 4 3 30 4300 1860 7138044 42057615 13% 42 11219763 91%
c - 130.13 3819 909 4 4 30 5294 2074 7137977 42057615 24% 35 11219763 91%
c } 132.55 3826 1525 5 4 30 6167 2909 7137979 42057615 19% 28 11219763 91%
c [ 132.55 3826 924 5 4 30 6167 2909 7137979 42057615 3% 39 11219763 91%
c I 132.61 3826 924 5 4 30 6167 2909 7137979 42057615 3% 39 11219763 91%
c d 136.05 3837 924 5 4 30 6167 2909 7260762 41604708 3% 39 11100068 90%
c u 143.06 4062 924 5 4 30 6167 2908 7260763 41604708 3% 39 11100068 90%
c v 149.04 4072 924 5 4 30 6167 2908 7260763 41604708 3% 39 11100068 90%
c = 181.07 4342 924 5 4 30 6167 2908 7417500 41603162 3% 39 11021511 89%
c d 184.27 4344 924 5 4 30 6167 2846 7566575 40761436 3% 39 10957149 88%
c t 188.17 4759 924 5 4 30 6167 2846 7565747 40761436 3% 39 10957147 88%
c b 189.24 4759 924 5 4 30 6167 2846 7565747 40761436 3% 39 10910137 88%
c - 240.34 4657 864 5 5 31 7294 3626 7358397 40761050 8% 68 10910137 88%
c i 241.37 4657 863 5 5 31 7296 3626 7358398 40761050 8% 68 10910136 88%
c i 242.19 4660 863 5 5 31 7297 3626 7358398 40761050 8% 68 10910135 88%
c i 242.99 4660 863 5 5 31 7298 3626 7358398 40761050 8% 68 10910134 88%
c ] 288.11 4668 939 6 5 31 8448 3925 7358637 40761050 18% 69 10910134 88%
c { 288.11 4668 1525 6 5 31 8448 3925 7358637 40761050 19% 28 10910134 88%
c i 307.14 4673 1522 6 5 36 8899 4101 7358659 40761050 22% 27 10886149 88%
c i 307.15 4673 1522 6 5 36 8900 4101 7358659 40761050 22% 27 10886007 88%
c
c  seconds       switched conflicts         irredundant      variables
c            MB   reductions  redundant               trail         remaining
c              level  restarts         binary             glue
c
c i 307.98 4673 1518 6 5 41 8911 4110 7358660 40761050 22% 27 10886006 88%
c i 308.85 4673 1518 6 5 41 8913 4111 7358660 40761050 22% 27 10886005 88%
c i 332.55 4675 1442 6 5 42 9222 4143 7358661 40761050 24% 28 10885886 88%
c i 332.59 4675 1441 6 5 44 9225 4143 7358663 40761049 24% 28 10885823 88%
c i 332.96 4675 1441 6 5 46 9227 4144 7358663 40761049 24% 28 10885760 88%
c i 333.08 4675 1442 6 5 47 9228 4144 7358663 40761049 24% 28 10885641 88%
c i 333.09 4675 1441 6 5 48 9230 4144 7358664 40761048 24% 28 10885582 88%
c i 333.10 4675 1441 6 5 49 9231 4144 7358664 40761048 24% 28 10885463 88%
c i 333.10 4676 1441 6 5 50 9232 4144 7358664 40761048 24% 28 10885462 88%
c i 333.11 4676 1441 6 5 51 9233 4144 7358664 40761048 24% 28 10885343 88%
c i 333.65 4678 1436 6 5 58 9251 4155 7358670 40761048 24% 28 10885338 88%
c i 333.65 4678 1436 6 5 59 9252 4155 7358670 40761048 24% 28 10885335 88%
c i 333.66 4678 1432 6 5 63 9265 4160 7358673 40761048 24% 28 10885328 88%
c i 333.67 4678 1432 6 5 64 9266 4160 7358673 40761048 24% 28 10885322 88%
c i 336.44 4678 1429 6 5 70 9278 4168 7358674 40761047 24% 28 10885321 88%
c i 369.57 4678 1411 6 5 71 9347 4187 7358722 40761047 24% 28 10885320 88%
c i 369.60 4678 1410 6 5 71 9348 4187 7358722 40761047 24% 28 10885185 88%
c i 371.93 4678 1409 6 5 71 9354 4190 7358724 40761047 24% 28 10885182 88%
c i 372.80 4678 1407 6 5 71 9360 4194 7358725 40761047 24% 27 10885181 88%
c i 377.60 4679 1383 6 5 71 9459 4289 7358726 40761047 24% 27 10885180 88%
c
c  seconds       switched conflicts         irredundant      variables
c            MB   reductions  redundant               trail         remaining
c              level  restarts         binary             glue
c
c - 381.75 4679 1366 6 6 73 9530 1857 7196323 40761047 24% 27 10885178 88%
c i 381.82 4679 1362 6 6 73 9547 1872 7196324 40761047 24% 27 10885177 88%
c i 388.92 4681 1315 6 6 74 9927 2007 7196398 40761047 25% 27 10885176 88%
c i 391.59 4681 1308 6 6 74 9979 2047 7196404 40761047 25% 26 10885175 88%
c i 398.43 4682 1280 6 6 74 10140 2204 7196406 40761046 24% 25 10883099 88%
c i 399.20 4682 1279 6 6 74 10145 2207 7196407 40761046 24% 25 10883096 88%
c i 402.40 4682 1275 6 6 74 10164 2220 7196410 40761046 24% 25 10883093 88%
c i 408.58 4683 1237 6 6 74 10477 2338 7196474 40761046 25% 25 10883090 88%
c i 408.66 4683 1236 6 6 74 10484 2343 7196475 40761046 25% 25 10883089 88%
c i 408.68 4683 1235 6 6 74 10488 2346 7196475 40761046 25% 25 10883088 88%
c i 409.79 4683 1234 6 6 76 10502 2355 7196477 40761045 25% 25 10883025 88%
c i 412.53 4684 1225 6 6 76 10611 2436 7196491 40761045 25% 24 10883022 88%
c i 412.56 4684 1225 6 6 76 10613 2436 7196492 40761044 25% 24 10882943 88%
c i 415.88 4684 1222 6 6 76 10624 2444 7196494 40761044 25% 24 10882942 88%
c i 416.17 4684 1221 6 6 76 10636 2452 7196495 40761044 25% 24 10880385 88%
c i 421.81 4685 1209 6 6 79 10721 2524 7196497 40761044 25% 24 10880373 88%
c i 421.84 4685 1208 6 6 79 10722 2524 7196497 40761044 25% 24 10880314 88%
c i 422.86 4685 1208 6 6 79 10725 2526 7196497 40761044 25% 24 10880313 88%
c i 423.21 4685 1207 6 6 79 10734 2533 7196498 40761044 25% 24 10880310 88%
c i 423.23 4685 1206 6 6 79 10736 2533 7196499 40761043 25% 24 10880231 88%
c
c  seconds       switched conflicts          irredundant      variables
c            MB   reductions   redundant               trail         remaining
c              level  restarts          binary             glue
c
c i 434.47 4686 1142 6 6 79 11263 2713 7196546 40761043 26% 23 10880228 88%
c i 435.39 4686 1141 6 6 79 11268 2716 7196547 40761043 26% 23 10880217 88%
c i 435.39 4686 1141 6 6 79 11269 2716 7196547 40761043 26% 23 10880210 88%
c i 435.40 4686 1142 6 6 79 11272 2716 7196549 40761042 26% 23 10880151 88%
c i 435.40 4686 1142 6 6 79 11273 2716 7196549 40761042 26% 23 10880032 88%
c i 435.50 4686 1142 6 6 79 11274 2716 7196549 40761042 26% 23 10880031 88%
c i 435.50 4686 1142 6 6 79 11275 2716 7196549 40761042 26% 23 10880024 88%
c i 435.55 4686 1144 6 6 79 11284 2716 7196553 40761042 26% 23 10880023 88%
c i 436.41 4686 1144 6 6 79 11290 2719 7196555 40761041 26% 23 10879964 88%
c i 438.82 4686 1143 6 6 79 11294 2722 7196555 40761041 26% 23 10879816 88%
c i 439.74 4686 1143 6 6 79 11299 2725 7196556 40761041 26% 23 10879804 88%
c i 440.76 4686 1140 6 6 79 11318 2737 7196562 40761041 26% 23 10879803 88%
c i 440.82 4686 1138 6 6 79 11335 2749 7196566 40761041 26% 23 10879802 88%
c i 441.76 4686 1138 6 6 79 11339 2751 7196567 40761041 26% 23 10879799 88%
c i 441.96 4686 1137 6 6 79 11341 2752 7196567 40761041 26% 23 10879798 88%
c i 443.33 4686 1134 6 6 79 11367 2775 7196569 40761041 26% 23 10879795 88%
c - 454.14 4688 1094 6 7 79 11979 2336 7180557 40761041 28% 22 10879795 88%
c i 454.18 4688 1093 6 7 79 11981 2336 7180558 40761040 28% 22 10879735 88%
c i 454.24 4688 1094 6 7 79 11984 2337 7180559 40761040 28% 22 10879734 88%
c i 455.16 4688 1097 6 7 79 11992 2337 7180566 40761040 28% 22 10879727 88%
c
c  seconds       switched conflicts          irredundant      variables
c            MB   reductions   redundant               trail         remaining
c              level  restarts          binary             glue
c
c i 455.19 4688 1099 6 7 79 12001 2340 7180569 40761040 28% 22 10879726 88%
c i 455.22 4688 1099 6 7 79 12003 2340 7180570 40761039 28% 22 10879667 88%
c i 456.30 4688 1098 6 7 79 12013 2341 7180578 40761039 28% 22 10879666 88%
c i 462.72 4688 1090 6 7 79 12069 2393 7180581 40761039 28% 22 10879665 88%
c d 467.51 4688 1090 6 7 79 12071 2385 7403823 39530492 28% 22 10686066 86%
c b 470.49 4837 1090 6 7 79 12071 2385 7403823 39530492 28% 22 10682604 86%
c u 481.57 4839 1090 6 7 79 12071 2233 7403831 39530492 28% 22 10682556 86%
c v 492.64 4839 1090 6 7 79 12071 2216 7403831 39530492 28% 22 10682556 86%
c d 539.41 4948 1090 6 7 79 12071 2209 6926584 39249391 28% 22 10373734 84%
c t 543.04 4957 1090 6 7 79 12071 2209 6926183 39249391 28% 22 10373709 84%
c b 544.11 4957 1090 6 7 79 12071 2209 6926183 39249391 28% 22 10304803 83%
c i 544.11 4957 1090 6 7 79 12071 2209 6926183 39249391 28% 22 10304803 83%
c i 546.19 4957 1087 6 7 79 12091 2222 6926189 39249391 28% 22 10304794 83%
c i 552.61 4958 1075 6 7 80 12192 2313 6926196 39249391 28% 22 10304793 83%
c i 557.86 4958 1068 6 7 81 12260 2364 6926201 39249391 28% 22 10304792 83%
c i 565.34 4959 1055 6 7 82 12373 2440 6926203 39249391 28% 21 10304791 83%
c i 569.92 4959 1049 6 7 84 12421 2481 6926206 39249391 28% 21 10304790 83%
c i 569.92 4959 1049 6 7 84 12422 2481 6926206 39249391 28% 21 10303903 83%
c i 569.92 4959 1049 6 7 84 12423 2481 6926206 39249391 28% 21 10303783 83%
c i 573.73 4973 1045 6 7 84 12450 2501 6926212 39249391 28% 21 6699798 54%
c
c  seconds       switched conflicts          irredundant      variables
c            MB   reductions   redundant               trail        remaining
c              level  restarts          binary             glue
c
c } 575.20 4973 1040 7 7 84 12519 2531 6926219 39249391 28% 21 6699798 54%
c [ 575.20 4973 939 7 7 84 12519 2531 6926219 39249391 18% 69 6699798 54%
c B 575.26 4973 939 7 7 84 12519 2531 6926219 39249391 18% 69 6699798 54%
c i 578.44 4973 921 7 7 84 12622 2612 6926231 39249391 18% 67 6699792 54%
c i 584.90 4973 886 7 7 84 12815 2792 6926238 39249391 17% 65 6699662 54%
c i 584.94 4973 886 7 7 84 12820 2795 6926238 39249391 17% 65 6699468 54%
c i 584.99 4973 885 7 7 84 12824 2798 6926238 39249391 17% 65 6699208 54%
c i 585.30 4973 882 7 7 84 12842 2815 6926238 39249391 17% 65 6698886 54%
c i 605.19 4973 805 7 7 84 13373 3328 6926245 39249389 16% 60 6691516 54%
c i 615.18 4974 781 7 7 85 13623 3560 6926253 39249389 15% 58 6689611 54%
c i 615.22 4974 781 7 7 85 13629 3561 6926255 39249389 15% 58 6689610 54%
c i 615.22 4974 780 7 7 85 13633 3563 6926256 39249389 15% 58 6689609 54%
c - 626.80 4592 655 7 8 85 14625 2248 8646724 19521075 15% 57 6689609 54%
c i 633.65 2609 645 7 8 86 14722 2329 8646732 19521075 15% 57 6687189 54%
c i 639.15 2609 633 7 8 86 14841 2433 8646733 19521075 15% 56 6684641 54%
c i 640.10 2609 630 7 8 86 14872 2460 8646736 19521075 15% 55 6684640 54%
c - 647.13 2609 544 7 9 86 17455 2646 8636890 19521075 15% 47 6684640 54%
c W 653.84 2637 534 7 9 86 18051 2843 8636991 19506058 15% 45 6684640 54%
c i 674.28 2648 456 7 9 88 20294 4559 8637103 19506058 15% 41 6684639 54%
c i 674.28 2648 456 7 9 88 20295 4559 8637103 19506058 15% 41 6684638 54%
c
c  seconds      switched conflicts          irredundant      variables
c            MB  reductions   redundant               trail        remaining
c              level restarts          binary             glue
c
c i 674.28 2648 456 7 9 88 20296 4559 8637103 19506058 15% 41 6684637 54%
c i 674.28 2648 456 7 9 88 20297 4559 8637103 19506058 15% 41 6684636 54%
c i 674.28 2648 456 7 9 88 20298 4559 8637103 19506058 15% 41 6684635 54%
c i 674.28 2648 456 7 9 88 20299 4559 8637103 19506058 15% 41 6684634 54%
c i 674.28 2648 456 7 9 88 20300 4559 8637103 19506058 15% 41 6684633 54%
c i 674.28 2648 456 7 9 88 20301 4559 8637103 19506058 15% 41 6684632 54%
c i 674.28 2648 456 7 9 88 20302 4559 8637103 19506058 15% 41 6684631 54%
c i 674.28 2648 456 7 9 88 20303 4559 8637103 19506058 15% 41 6684630 54%
c i 674.28 2648 456 7 9 88 20304 4559 8637103 19506058 15% 41 6684629 54%
c i 674.28 2648 456 7 9 88 20305 4559 8637103 19506058 15% 41 6684628 54%
c i 674.28 2648 456 7 9 88 20306 4559 8637103 19506058 15% 41 6684627 54%
c i 674.28 2648 456 7 9 88 20307 4559 8637103 19506058 15% 41 6684626 54%
c i 674.28 2648 456 7 9 88 20308 4559 8637103 19506058 15% 41 6684625 54%
c i 674.29 2648 456 7 9 88 20309 4559 8637103 19506058 15% 41 6684624 54%
c i 674.29 2648 456 7 9 88 20310 4559 8637103 19506058 15% 41 6684623 54%
c i 674.29 2648 456 7 9 88 20311 4559 8637103 19506058 15% 41 6684622 54%
c i 674.29 2648 456 7 9 88 20312 4559 8637103 19506058 15% 41 6684621 54%
c i 674.29 2648 456 7 9 88 20313 4559 8637103 19506058 15% 41 6684620 54%
c i 674.29 2648 456 7 9 88 20314 4559 8637103 19506058 15% 41 6684619 54%
c i 674.29 2648 456 7 9 88 20315 4559 8637103 19506058 15% 41 6684618 54%
c
c  seconds      switched conflicts          irredundant      variables
c            MB  reductions   redundant               trail        remaining
c              level restarts          binary             glue
c
c i 674.29 2648 456 7 9 88 20316 4559 8637103 19506058 15% 41 6684617 54%
c i 674.29 2648 456 7 9 88 20317 4559 8637103 19506058 15% 41 6684616 54%
c i 674.29 2648 456 7 9 88 20318 4559 8637103 19506058 15% 41 6684615 54%
c i 674.29 2648 456 7 9 88 20319 4559 8637103 19506058 15% 41 6684614 54%
c i 674.29 2648 456 7 9 88 20320 4559 8637103 19506058 15% 41 6684613 54%
c i 674.29 2648 456 7 9 88 20321 4559 8637103 19506058 15% 41 6684612 54%
c i 674.29 2648 455 7 9 88 20322 4559 8637103 19506058 15% 41 6684611 54%
c i 674.29 2648 455 7 9 88 20323 4559 8637103 19506058 15% 41 6684610 54%
c i 674.29 2648 455 7 9 88 20324 4559 8637103 19506058 15% 41 6684609 54%
c i 674.29 2648 455 7 9 88 20325 4559 8637103 19506058 15% 41 6684608 54%
c i 674.29 2648 455 7 9 88 20326 4559 8637103 19506058 15% 41 6684607 54%
c i 676.10 2648 454 7 9 88 20374 4605 8637104 19506058 14% 41 6684606 54%
c - 679.69 2648 452 7 10 88 20457 3208 8637069 19506058 14% 40 6684606 54%
c i 710.67 2654 427 7 10 89 22042 3933 8637215 19506058 14% 37 6684605 54%
c i 714.86 2654 424 7 10 89 22129 4015 8637218 19506058 14% 37 6684604 54%
c i 716.87 2654 422 7 10 89 22202 4071 8637222 19506058 14% 37 6684603 54%
c i 724.05 2654 413 7 10 89 22489 4347 8637227 19506058 14% 36 6684602 54%
c i 730.32 2654 410 7 10 89 22587 4434 8637236 19506058 14% 36 6684601 54%
c i 737.81 2654 404 7 10 89 22768 4604 8637239 19506058 14% 36 6684600 54%
c ] 745.45 2654 400 8 10 89 22901 4731 8637241 19506058 14% 36 6684600 54%
c
c  seconds       switched  conflicts          irredundant      variables
c            MB    reductions   redundant               trail        remaining
c              level   restarts          binary             glue
c
c { 745.45 2654 1040 8 10 89 22901 4731 8637241 19506058 28% 21 6684600 54%
c i 748.56 2664 1025 8 10 93 23049 4866 8637248 19506058 28% 21 6681924 54%
c i 749.43 2664 1022 8 10 93 23077 4890 8637250 19506058 28% 21 6681923 54%
c i 754.96 2664 1003 8 10 93 23221 5026 8637253 19506058 27% 21 6681922 54%
c i 756.18 2666 1000 8 10 93 23254 5057 8637254 19506058 27% 21 6681921 54%
c i 756.18 2666 999 8 10 93 23255 5057 8637254 19506058 27% 21 6681919 54%
c i 756.21 2666 999 8 10 93 23260 5060 8637255 19506058 27% 21 6681918 54%
c i 757.03 2666 995 8 10 97 23296 5091 8637259 19506058 27% 21 6681917 54%
c i 763.39 2666 968 8 10 98 23524 5300 8637275 19506058 27% 21 6681916 54%
c - 766.09 2668 960 8 11 98 23621 3886 8632174 19506058 27% 21 6681916 54%
c i 767.90 2682 955 8 11 98 23811 3961 8632184 19506058 26% 20 6681907 54%
c i 767.95 2684 955 8 11 98 23813 3961 8632185 19506058 26% 20 6681904 54%
c i 768.39 2690 957 8 11 98 23834 3969 8632192 19506057 26% 20 6681903 54%
c i 770.36 2694 958 8 11 98 23870 3996 8632193 19506057 26% 20 6681900 54%
c i 771.75 2696 953 8 11 98 23964 4070 8632199 19506057 26% 20 6681899 54%
c i 772.63 2696 951 8 11 98 23992 4096 8632200 19506057 26% 20 6681897 54%
c i 772.86 2696 950 8 11 98 24001 4104 8632200 19506057 26% 20 6681896 54%
c i 772.95 2696 950 8 11 98 24002 4104 8632200 19506057 26% 20 6681895 54%
c i 773.04 2696 950 8 11 98 24003 4104 8632200 19506057 26% 20 6681894 54%
c i 773.47 2696 948 8 11 98 24034 4124 8632203 19506057 26% 20 6681893 54%
c
c  seconds      switched  conflicts          irredundant      variables
c            MB   reductions   redundant               trail        remaining
c              level  restarts          binary             glue
c
c i 777.12 2696 927 8 11 98 24289 4351 8632228 19506057 26% 20 6681892 54%
c d 779.27 2696 927 8 11 98 24289 4299 6026489 19435978 26% 20 5358296 43%
c b 780.74 2762 927 8 11 98 24289 4299 6026489 19435978 26% 20 5338394 43%
c u 788.33 2766 927 8 11 98 24289 4255 6026520 19435978 26% 20 5338394 43%
c v 796.07 2766 927 8 11 98 24289 4254 6026520 19435978 26% 20 5338394 43%
c w 812.06 2895 927 8 11 98 24289 4364 6093275 19250185 26% 20 5338394 43%
c = 827.30 2895 927 8 11 98 24289 4364 6095033 19250185 26% 20 5337515 43%
c d 828.84 2895 927 8 11 98 24289 4305 5995755 19249816 26% 20 5289637 43%
c t 831.99 2896 927 8 11 98 24289 4305 5988875 19249816 26% 20 5289572 43%
c b 832.61 2896 927 8 11 98 24289 4305 5988875 19249816 26% 20 5288741 43%
c i 833.59 2898 922 8 11 98 24339 4344 5988879 19249816 25% 20 5288740 43%
c i 833.97 2898 906 8 11 98 24500 4500 5988882 19249816 25% 19 5288739 43%
c i 834.09 2900 907 8 11 98 24510 4502 5988886 19249814 25% 19 5288738 43%
c i 834.39 2902 908 8 11 98 24519 4505 5988888 19249814 25% 19 5288737 43%
c i 839.63 2904 893 8 11 114 24697 4666 5988898 19249814 25% 19 5288736 43%
c i 839.73 2904 891 8 11 114 24715 4683 5988898 19249814 25% 19 5288735 43%
c i 840.00 2904 890 8 11 114 24732 4698 5988899 19249814 25% 19 5288734 43%
c i 840.06 2904 890 8 11 114 24733 4698 5988899 19249814 25% 19 5288733 43%
c i 840.55 2904 880 8 11 114 24836 4796 5988903 19249814 24% 19 5288732 43%
c i 843.30 2904 870 8 11 114 24940 4899 5988903 19249814 24% 19 5288731 43%
c
c  seconds      switched   conflicts          irredundant      variables
c            MB   reductions    redundant               trail        remaining
c              level  restarts           binary             glue
c
c i 844.54 2904 868 8 11 114 24964 4917 5988905 19249814 24% 19 5288730 43%
c i 860.19 2920 825 8 11 115 25487 5418 5988916 19249814 23% 18 5288729 43%
c i 860.21 2920 825 8 11 115 25488 5418 5988916 19249814 23% 18 5288728 43%
c i 862.53 2922 823 8 11 115 25578 5481 5988929 19249813 23% 18 5288726 43%
c i 862.53 2922 823 8 11 115 25583 5484 5988929 19249813 23% 18 5288719 43%
c i 866.81 2922 799 8 11 116 25902 5788 5988940 19249811 23% 18 5288718 43%
c i 866.81 2922 799 8 11 116 25903 5788 5988940 19249811 23% 18 5288717 43%
c i 866.81 2922 799 8 11 116 25904 5788 5988940 19249811 23% 18 5288714 43%
c i 877.25 2926 781 8 11 117 26217 6078 5988951 19249811 22% 18 5288668 43%
c i 877.25 2926 780 8 11 117 26223 6079 5988953 19249811 22% 18 5288667 43%
c i 880.44 2926 768 8 11 117 26414 6247 5988960 19249811 22% 18 5288666 43%
c i 881.68 2926 760 8 11 117 26535 6356 5988967 19249811 22% 17 5281396 43%
c i 882.23 2926 758 8 11 117 26552 6371 5988968 19249811 22% 17 5281395 43%
c i 882.23 2926 758 8 11 117 26553 6371 5988968 19249811 22% 17 5281394 43%
c i 883.83 2926 753 8 11 117 26640 6445 5988974 19249811 22% 17 5280274 43%
c } 883.95 2926 753 8 11 117 26643 6445 5988975 19249811 22% 17 5275431 43%
c 0 883.95 2926 753 8 11 117 26643 6445 5988975 19249811 22% 17 5275431 43%
c
c ---- [ result ] ------------------------------------------------------------
c
s UNSATISFIABLE
c
c ---- [ profiling ] ---------------------------------------------------------
c
c         666.13   75.36 %  search
c         388.03   43.90 %  focused
c         278.09   31.46 %  stable
c         202.24   22.88 %  simplify
c         192.16   21.74 %  probe
c         110.43   12.49 %  vivify
c          44.41    5.02 %  sweep
c          25.37    2.87 %  substitute
c          20.22    2.29 %  reduce
c          15.58    1.76 %  parse
c          10.08    1.14 %  walking
c           6.07    0.69 %  transitive
c           5.89    0.67 %  backbone
c           5.19    0.59 %  warmup
c =============================================
c         883.95  100.00 %  total
c
c ---- [ statistics ] --------------------------------------------------------
c
c chronological:                         6531               25 %  conflicts
c conflicts:                            26643               30.14 per second
c decisions:                           394660               14.81 per conflict
c jumped_reasons:                   251741974                7 %  propagations
c propagations:                    3666314180          4147626    per second
c queue_decisions:                     118922               30 %  decision
c random_decisions:                     52526               13 %  decision
c random_sequences:                        14             1903    interval
c reductions:                              11             2422    interval
c rephased:                                 5             5329    interval
c restarts:                               117              227.72 interval
c score_decisions:                     223212               57 %  decision
c substituted:                        2098338               17 %  variables
c switched:                                 8             3330    interval
c vivified:                              1099                1 %  checks
c vivify_checks:                        80391            26797    per vivify
c vivify_units:                             1                0 %  variables
c walk_improved:                            2              100 %  walks
c walks:                                    2            13322    interval
c
c ---- [ resources ] ---------------------------------------------------------
c
c maximum-resident-set-size:       5449572352 bytes       5197 MB
c process-time:                        14m 44s             883.95 seconds
c
c ---- [ shutting down ] -----------------------------------------------------
c
c exit 20
